0000000000000000
0000011111100000
0000000111100000
0000000111100000
0000000111100000
0000000111100000
0000000111100000
0000000111100000
0000000111100000
0000000111100000
0000000111100000
0000000111100000
0000000111100000
0000000111100000
0000000111100000
0000000111100000
